nNurses = 97;
nHours = 30;
minHours = 9;
maxHours = 14;
maxConsec = 12;
maxPresence = 18;
demand = [46, 45, 43, 39, 43, 40, 44, 45, 41, 41, 42, 38, 37, 36, 36, 34, 36, 37, 36, 39, 39, 42, 43, 39, 36, 32, 33, 30, 25, 29];
